0 0 0 0
0 1 0 0
0 2 0 0
0 3 0 0
0 4 2 1
0 5 0 1
0 6 1 1
0 7 0 2
0 8 1 7
0 9 2 1
0 10 2 4
0 11 1 7
0 12 0 7
0 13 1 10
0 14 2 11
0 15 0 11
0 16 0 15
0 17 1 2
0 18 2 10
0 19 2 20
0 20 0 9
0 21 1 8
0 22 0 20
0 23 0 16
0 24 0 18
0 25 0 26
0 26 2 1
0 27 2 16
0 28 0 24
0 29 1 24
0 30 0 30
0 31 0 31
